benchmarks/bfuzz0/4788454317393173383159929434922932277.smt2
(set-logic QF_FP)
(declare-const x0 (_ FloatingPoint 11 53))
(declare-const x1 (_ FloatingPoint 11 53))
(declare-const x2 (_ FloatingPoint 11 53))
(declare-const x3 (_ FloatingPoint 11 53))
(declare-const x4 (_ FloatingPoint 11 53))
(declare-const x5 (_ FloatingPoint 11 53))
(declare-const x6 (_ FloatingPoint 11 53))
(declare-const x7 (_ FloatingPoint 11 53))
(declare-const x8 (_ FloatingPoint 11 53))
(declare-const x9 (_ FloatingPoint 11 53))
(declare-const x10 (_ FloatingPoint 11 53))
(assert (fp.lt (fp.div RNE (fp.div RNE x1 x4) (fp.mul RNE x5 x7)) (fp.add RNE (fp.neg x8) (fp.sub RNE x5 x6))))
(assert (fp.eq (fp.neg (fp.neg x3)) (fp.div RNE (fp.add RNE x3 x1) (fp.sub RNE x10 x6))))
(assert (fp.gt (fp.mul RNE (fp.add RNE x8 x7) (fp.sub RNE x1 x7)) (fp.mul RNE (fp.mul RNE x4 x5) (fp.mul RNE x8 x2))))
(assert (fp.eq (fp.div RNE (fp.mul RNE x3 x1) (fp.sub RNE x4 x4)) (fp.add RNE (fp.neg x1) (fp.sub RNE x6 x3))))
(assert (fp.leq (fp.sub RNE (fp.add RNE x0 x0) (fp.mul RNE x2 x6)) (fp.mul RNE (fp.sub RNE x9 x0) (fp.div RNE x1 x6))))
(assert (fp.geq (fp.add RNE (fp.sub RNE x2 x9) (fp.sub RNE x0 x4)) (fp.sub RNE (fp.sub RNE x10 x0) (fp.div RNE x7 x10))))
(assert (fp.lt (fp.add RNE (fp.neg x2) (fp.neg x8)) (fp.div RNE (fp.mul RNE x9 x0) (fp.mul RNE x9 x9))))
(assert (fp.leq (fp.div RNE (fp.mul RNE x6 x0) (fp.sub RNE x9 x10)) (fp.div RNE (fp.add RNE x7 x7) (fp.div RNE x8 x5))))
(assert (fp.eq (fp.mul RNE (fp.div RNE x8 x3) (fp.mul RNE x10 x6)) (fp.neg (fp.mul RNE x2 x6))))
(assert (fp.gt (fp.div RNE (fp.sub RNE x8 x10) (fp.div RNE x7 x10)) (fp.div RNE (fp.sub RNE x6 x3) (fp.neg x4))))
(assert (fp.leq (fp.mul RNE (fp.mul RNE x6 x2) (fp.sub RNE x5 x5)) (fp.add RNE (fp.div RNE x1 x6) (fp.div RNE x3 x8))))
(check-sat)
