db/data/4788454317393173383159929434922932277.z3.out
-------------------
2500.130597642
